; benchmark generated from python API
(set-info :status unknown)
(declare-fun x_months () Int)
(declare-fun x_beta () Int)
(declare-fun y_months () Int)
(declare-fun y_beta () Int)
(assert
 (<= (- 1200) x_months))
(assert
 (>= 1199 x_months))
(assert
 (>= x_beta 0))
(assert
 (let ((?x2243 (+ x_months 24003)))
 (let ((?x1656 (- ?x2243 (* (div (- ?x2243 1) 12) 12))))
 (let ((?x4583 (ite (or (= ?x1656 4) (= ?x1656 6) (= ?x1656 9) (= ?x1656 11)) 30 31)))
 (let (($x4336 (and (= (mod (div (- ?x2243 1) 12) 4) 0) (and (distinct (mod (div (- ?x2243 1) 12) 100) 0) true))))
 (let ((?x4417 (ite (or $x4336 (= (mod (div (- ?x2243 1) 12) 400) 0)) 29 28)))
 (< x_beta (ite (= ?x1656 2) ?x4417 ?x4583))))))))
(assert
 (<= (- 1200) y_months))
(assert
 (>= 1199 y_months))
(assert
 (>= y_beta 0))
(assert
 (let ((?x2659 (+ y_months 24003)))
 (let ((?x5444 (- ?x2659 (* (div (- ?x2659 1) 12) 12))))
 (let ((?x3638 (ite (or (= ?x5444 4) (= ?x5444 6) (= ?x5444 9) (= ?x5444 11)) 30 31)))
 (let (($x543 (and (= (mod (div (- ?x2659 1) 12) 4) 0) (and (distinct (mod (div (- ?x2659 1) 12) 100) 0) true))))
 (let ((?x2368 (ite (or $x543 (= (mod (div (- ?x2659 1) 12) 400) 0)) 29 28)))
 (< y_beta (ite (= ?x5444 2) ?x2368 ?x3638))))))))
(assert
 (let (($x1225 (and (= x_months (- (+ (* 2023 12) 6) 24003)) (<= 0 x_beta))))
 (or (> x_months (- (+ (* 2023 12) 6) 24003)) $x1225)))
(assert
 (let ((?x2386 (+ x_beta 1)))
 (let ((?x1713 (+ (+ x_months 1) 24003)))
 (let ((?x2276 (- ?x1713 (* (div (- ?x1713 1) 12) 12))))
 (let ((?x463 (ite (or (= ?x2276 4) (= ?x2276 6) (= ?x2276 9) (= ?x2276 11)) 30 31)))
 (let (($x5294 (and (= (mod (div (- ?x1713 1) 12) 4) 0) (and (distinct (mod (div (- ?x1713 1) 12) 100) 0) true))))
 (let (($x5352 (or $x5294 (= (mod (div (- ?x1713 1) 12) 400) 0))))
 (let ((?x3572 (ite (= ?x2276 2) (ite $x5352 29 28) ?x463)))
 (let ((?x540 (ite (> 1 ?x2386) 1 (ite (> ?x2386 ?x3572) ?x3572 ?x2386))))
 (let ((?x559 (ite (> 1 ?x540) 1 (ite (> ?x540 ?x3572) ?x3572 ?x540))))
 (let ((?x2640 (ite (= 2 ?x2276) (ite $x5352 31 31) (ite (= 1 ?x2276) (ite $x5352 0 0) 0))))
 (let ((?x971 (ite (= 4 ?x2276) (ite $x5352 91 90) (ite (= 3 ?x2276) (ite $x5352 60 59) ?x2640))))
 (let ((?x3832 (ite (= 6 ?x2276) (ite $x5352 152 151) (ite (= 5 ?x2276) (ite $x5352 121 120) ?x971))))
 (let ((?x2699 (ite (= 8 ?x2276) (ite $x5352 213 212) (ite (= 7 ?x2276) (ite $x5352 182 181) ?x3832))))
 (let ((?x3048 (ite (= 10 ?x2276) (ite $x5352 274 273) (ite (= 9 ?x2276) (ite $x5352 244 243) ?x2699))))
 (let ((?x2469 (ite (= 12 ?x2276) (ite $x5352 335 334) (ite (= 11 ?x2276) (ite $x5352 305 304) ?x3048))))
 (let ((?x2988 (+ (* 365 (- (div (- ?x1713 1) 12) 1)) (div (- (div (- ?x1713 1) 12) 1) 4))))
 (let ((?x1999 (+ (- ?x2988 (div (- (div (- ?x1713 1) 12) 1) 100)) (div (- (div (- ?x1713 1) 12) 1) 400))))
 (let ((?x3095 (+ (+ (- (+ (+ ?x1999 ?x2469) (- ?x559 1)) 730179) 0) 730179)))
 (let ((?x4613 (mod ?x3095 146097)))
 (let ((?x599 (div ?x4613 36524)))
 (let ((?x3689 (ite (<= 4 ?x599) 3 ?x599)))
 (let ((?x2332 (- ?x4613 (* ?x3689 36524))))
 (let ((?x1537 (mod ?x2332 1461)))
 (let ((?x3233 (div ?x1537 365)))
 (let ((?x1422 (ite (<= 4 ?x3233) 3 ?x3233)))
 (let ((?x4599 (+ (+ (* (div ?x3095 146097) 400) (* ?x3689 100)) (* (div ?x2332 1461) 4))))
 (let ((?x1111 (+ (+ ?x4599 ?x1422) 1)))
 (let (($x5282 (or (and (= (mod ?x1111 4) 0) (and (distinct (mod ?x1111 100) 0) true)) (= (mod ?x1111 400) 0))))
 (let ((?x2154 (- ?x1537 (* ?x1422 365))))
 (let ((?x2878 (ite $x5282 31 31)))
 (let (($x5472 (>= ?x2154 ?x2878)))
 (let ((?x3989 (ite $x5472 (+ (- ?x2154 ?x2878) 1) (+ (- ?x2154 (ite $x5282 0 0)) 1))))
 (let ((?x2701 (ite $x5282 60 59)))
 (let (($x1510 (>= ?x2154 ?x2701)))
 (let ((?x5248 (ite $x5282 91 90)))
 (let (($x4020 (>= ?x2154 ?x5248)))
 (let ((?x3471 (ite $x4020 (+ (- ?x2154 ?x5248) 1) (ite $x1510 (+ (- ?x2154 ?x2701) 1) ?x3989))))
 (let ((?x4270 (ite $x5282 121 120)))
 (let (($x1601 (>= ?x2154 ?x4270)))
 (let ((?x1190 (ite $x5282 152 151)))
 (let (($x2719 (>= ?x2154 ?x1190)))
 (let ((?x2121 (ite $x2719 (+ (- ?x2154 ?x1190) 1) (ite $x1601 (+ (- ?x2154 ?x4270) 1) ?x3471))))
 (let ((?x4767 (ite $x5282 182 181)))
 (let (($x3840 (>= ?x2154 ?x4767)))
 (let ((?x5415 (ite $x5282 213 212)))
 (let (($x4825 (>= ?x2154 ?x5415)))
 (let ((?x4712 (ite $x4825 (+ (- ?x2154 ?x5415) 1) (ite $x3840 (+ (- ?x2154 ?x4767) 1) ?x2121))))
 (let ((?x3763 (ite $x5282 244 243)))
 (let (($x4705 (>= ?x2154 ?x3763)))
 (let ((?x2700 (ite $x5282 274 273)))
 (let (($x1081 (>= ?x2154 ?x2700)))
 (let ((?x4291 (ite $x1081 (+ (- ?x2154 ?x2700) 1) (ite $x4705 (+ (- ?x2154 ?x3763) 1) ?x4712))))
 (let ((?x5142 (ite $x5282 305 304)))
 (let (($x3960 (>= ?x2154 ?x5142)))
 (let ((?x828 (ite $x5282 335 334)))
 (let (($x432 (>= ?x2154 ?x828)))
 (let ((?x4379 (ite $x432 (+ (- ?x2154 ?x828) 1) (ite $x3960 (+ (- ?x2154 ?x5142) 1) ?x4291))))
 (let (($x964 (= 0 0)))
 (let ((?x2587 (+ (- (ite $x964 ?x559 ?x4379) 1) 1)))
 (let ((?x1689 (ite $x1601 5 (ite $x4020 4 (ite $x1510 3 (ite $x5472 2 1))))))
 (let ((?x3192 (ite $x4705 9 (ite $x4825 8 (ite $x3840 7 (ite $x2719 6 ?x1689))))))
 (let ((?x1687 (+ (* (ite $x964 (div (- ?x1713 1) 12) ?x1111) 12) (ite $x964 ?x2276 (ite $x432 12 (ite $x3960 11 (ite $x1081 10 ?x3192)))))))
 (let ((?x1748 (+ (+ (- ?x1687 24003) 0) 24003)))
 (let ((?x2950 (div (- ?x1748 1) 12)))
 (let ((?x808 (- ?x1748 (* ?x2950 12))))
 (let ((?x4217 (ite (or (= ?x808 4) (= ?x808 6) (= ?x808 9) (= ?x808 11)) 30 31)))
 (let (($x666 (or (and (= (mod ?x2950 4) 0) (and (distinct (mod ?x2950 100) 0) true)) (= (mod ?x2950 400) 0))))
 (let ((?x456 (ite (= ?x808 2) (ite $x666 29 28) ?x4217)))
 (let ((?x3759 (ite (> 1 ?x2587) 1 (ite (> ?x2587 ?x456) ?x456 ?x2587))))
 (let ((?x4455 (ite (> 1 ?x3759) 1 (ite (> ?x3759 ?x456) ?x456 ?x3759))))
 (let ((?x4932 (ite (= 2 ?x808) (ite $x666 31 31) (ite (= 1 ?x808) (ite $x666 0 0) 0))))
 (let ((?x1853 (ite (= 4 ?x808) (ite $x666 91 90) (ite (= 3 ?x808) (ite $x666 60 59) ?x4932))))
 (let ((?x4016 (ite (= 6 ?x808) (ite $x666 152 151) (ite (= 5 ?x808) (ite $x666 121 120) ?x1853))))
 (let ((?x2631 (ite (= 8 ?x808) (ite $x666 213 212) (ite (= 7 ?x808) (ite $x666 182 181) ?x4016))))
 (let ((?x1941 (ite (= 10 ?x808) (ite $x666 274 273) (ite (= 9 ?x808) (ite $x666 244 243) ?x2631))))
 (let ((?x2199 (ite (= 12 ?x808) (ite $x666 335 334) (ite (= 11 ?x808) (ite $x666 305 304) ?x1941))))
 (let ((?x3167 (- (+ (* 365 (- ?x2950 1)) (div (- ?x2950 1) 4)) (div (- ?x2950 1) 100))))
 (let ((?x2638 (- (+ (+ (+ ?x3167 (div (- ?x2950 1) 400)) ?x2199) (- ?x4455 1)) 730179)))
 (let ((?x4062 (+ (+ ?x2638 15) 730179)))
 (let ((?x1787 (mod ?x4062 146097)))
 (let ((?x5314 (div ?x1787 36524)))
 (let ((?x1613 (ite (<= 4 ?x5314) 3 ?x5314)))
 (let ((?x1774 (- ?x1787 (* ?x1613 36524))))
 (let ((?x621 (mod ?x1774 1461)))
 (let ((?x3813 (div ?x621 365)))
 (let ((?x963 (ite (<= 4 ?x3813) 3 ?x3813)))
 (let ((?x4910 (+ (+ (* (div ?x4062 146097) 400) (* ?x1613 100)) (* (div ?x1774 1461) 4))))
 (let ((?x3001 (+ (+ ?x4910 ?x963) 1)))
 (let (($x1167 (or (and (= (mod ?x3001 4) 0) (and (distinct (mod ?x3001 100) 0) true)) (= (mod ?x3001 400) 0))))
 (let ((?x3564 (- ?x621 (* ?x963 365))))
 (let ((?x4174 (ite $x1167 31 31)))
 (let (($x2944 (>= ?x3564 ?x4174)))
 (let ((?x5455 (ite $x2944 (+ (- ?x3564 ?x4174) 1) (+ (- ?x3564 (ite $x1167 0 0)) 1))))
 (let ((?x2424 (ite $x1167 60 59)))
 (let (($x2630 (>= ?x3564 ?x2424)))
 (let ((?x4363 (ite $x1167 91 90)))
 (let (($x5413 (>= ?x3564 ?x4363)))
 (let ((?x1571 (ite $x5413 (+ (- ?x3564 ?x4363) 1) (ite $x2630 (+ (- ?x3564 ?x2424) 1) ?x5455))))
 (let ((?x3222 (ite $x1167 121 120)))
 (let (($x5359 (>= ?x3564 ?x3222)))
 (let ((?x5296 (ite $x1167 152 151)))
 (let (($x4574 (>= ?x3564 ?x5296)))
 (let ((?x3982 (ite $x4574 (+ (- ?x3564 ?x5296) 1) (ite $x5359 (+ (- ?x3564 ?x3222) 1) ?x1571))))
 (let ((?x5341 (ite $x1167 182 181)))
 (let (($x3966 (>= ?x3564 ?x5341)))
 (let ((?x5299 (ite $x1167 213 212)))
 (let (($x4800 (>= ?x3564 ?x5299)))
 (let ((?x1842 (ite $x4800 (+ (- ?x3564 ?x5299) 1) (ite $x3966 (+ (- ?x3564 ?x5341) 1) ?x3982))))
 (let ((?x1775 (ite $x1167 244 243)))
 (let (($x2706 (>= ?x3564 ?x1775)))
 (let ((?x2853 (ite $x1167 274 273)))
 (let (($x4631 (>= ?x3564 ?x2853)))
 (let ((?x4487 (ite $x4631 (+ (- ?x3564 ?x2853) 1) (ite $x2706 (+ (- ?x3564 ?x1775) 1) ?x1842))))
 (let ((?x1756 (ite $x1167 305 304)))
 (let (($x5283 (>= ?x3564 ?x1756)))
 (let ((?x3877 (ite $x1167 335 334)))
 (let (($x5350 (>= ?x3564 ?x3877)))
 (let ((?x1883 (ite $x5350 (+ (- ?x3564 ?x3877) 1) (ite $x5283 (+ (- ?x3564 ?x1756) 1) ?x4487))))
 (let (($x2218 (= 15 0)))
 (let ((?x4523 (ite $x5359 5 (ite $x5413 4 (ite $x2630 3 (ite $x2944 2 1))))))
 (let ((?x3823 (ite $x2706 9 (ite $x4800 8 (ite $x3966 7 (ite $x4574 6 ?x4523))))))
 (let ((?x4886 (ite $x5350 12 (ite $x5283 11 (ite $x4631 10 ?x3823)))))
 (let (($x4912 (= (- (+ (* (ite $x2218 ?x2950 ?x3001) 12) (ite $x2218 ?x808 ?x4886)) 24003) y_months)))
 (and $x4912 (= (- (ite $x2218 ?x4455 ?x1883) 1) y_beta))))))))))))))))))))))))))))))))))))))))))))))))))))))))))))))))))))))))))))))))))))))))))))))))))))))))))))))))))))))))))))))
(assert
 (let (($x3520 (and (= y_months (- (+ (* 2023 12) 6) 24003)) (<= 0 y_beta))))
(or (> y_months (- (+ (* 2023 12) 6) 24003)) $x3520)))
(check-sat)
